! Anzahl der cpus:
%NprocShared=16

#p pbepbe/STO-3G pop=regular scf=tight int=finegrid pop=Hirshfeld

orbitals calculation

0 1
! Hier werden die Atome und deren Positionen angegeben:
 C   -0.726956    1.230488    0.000000
 C    1.411458    0.000001    0.000000
 H    2.508008    0.000003    0.000000
 C    0.726954    1.230487    0.000000
 C    0.714918    3.679673    0.000000
 H    1.253945    4.632034    0.000000
 C   -0.714916    3.679672    0.000000
 H   -1.253943    4.632034    0.000000
 C    1.413800    2.488632    0.000000
 H    2.509279    2.486396    0.000000
 C   -1.413800    2.488633    0.000000
 H    2.509279   -2.486402    0.000000
 C    0.726956   -1.230488    0.000000
 C   -1.411458   -0.000001    0.000000
 H   -2.508008   -0.000003    0.000000
 C   -0.726954   -1.230487    0.000000
 C   -0.714918   -3.679673    0.000000
 H   -1.253945   -4.632034    0.000000
 C    0.714916   -3.679672    0.000000
 H    1.253943   -4.632034    0.000000
 C   -1.413800   -2.488632    0.000000
 H   -2.509279   -2.486396    0.000000
 C    1.413800   -2.488633    0.000000
 H   -2.509279    2.486402    0.000000       
! Am Ende muss eine leere Zeile hinzugefuegt werden.


