! Anzahl der cpus:
%NprocShared=16

#p pbepbe/STO-3G pop=regular scf=tight int=finegrid pop=Hirshfeld

orbitals calculation

0 1
! Hier werden die Atome und deren Positionen angegeben:

! Am Ende muss eine leere Zeile hinzugefuegt werden.

