! Anzahl der cpus:
%NprocShared=16

! Hier muss das Basisset definiert werden (%%%%)
# pbepbe/6-31+G** opt scf=tight int=finegrid

optimization calculation

0 1
! Hier werden die Atome und deren Positionen angegeben:
C 5.82595803 4.30575664 0.00000000
C 4.60757096 2.17521890 0.00000000
H 4.61030655 1.08307335 0.00000000
C 5.82956532 2.85919852 0.00000000
C 8.26543394 2.87707686 0.00000000
H 9.21564995 2.34311211 0.00000000
C 8.26187851 4.30001245 0.00000000
H 9.20941667 4.83871597 0.00000000
C 7.08371336 2.17917731 0.00000000
H 7.08529635 1.08808057 0.00000000
C 7.07670002 4.99201683 0.00000000
H 2.13525806 1.07573065 0.00000000
C 3.38217280 2.85308089 0.00000000
C 4.60055987 4.98361863 0.00000000
H 4.59782429 6.07576418 0.00000000
C 3.37856551 4.29963901 0.00000000
C 0.94269689 4.28176062 0.00000000
H -0.00751913 4.81572535 0.00000000
C 0.94625233 2.85882502 0.00000000
H -0.00128584 2.32012151 0.00000000
C 2.12441745 4.97966020 0.00000000
H 2.12283442 6.07075694 0.00000000
C 2.13143083 2.16682067 0.00000000
H 7.07287286 6.08310685 0.00000000
! Am Ende muss eine leere Zeile hinzugefuegt werden.


