! Anzahl der cpus:
%NprocShared=16

! Hier muss das Basisset definiert werden (%%%%)
#p pbepbe/6-31+G**  pop=regular scf=tight int=finegrid formcheck

orbitals calculation

0 1
! Hier werden die Atome und deren Positionen angegeben:
                          C        5.832736    4.309442    0.000000
                          C        4.607587    2.167966    0.000000
                          H        4.610324    1.071418    0.000000
                          C        5.836362    2.855536    0.000000
                          C        8.285510    2.873682    0.000000
                          H        9.239213    2.337032    0.000000
                          C        8.281943    4.303511    0.000000
                          H        9.232957    4.844912    0.000000
                          C        7.096216    2.171831    0.000000
                          H        7.096713    1.076350    0.000000
                          C        7.089164    4.999422    0.000000
                          H        2.123930    1.063946    0.000000
                          C        3.375395    2.849395    0.000000
                          C        4.600544    4.990872    0.000000
                          H        4.597807    6.087419    0.000000
                          C        3.371768    4.303301    0.000000
                          C        0.922621    4.285156    0.000000
                          H       -0.031082    4.821806    0.000000
                          C        0.926188    2.855327    0.000000
                          H       -0.024826    2.313926    0.000000
                          C        2.111915    4.987007    0.000000
                          H        2.111418    6.082488    0.000000
                          C        2.118967    2.159416    0.000000
                          H        7.084201    6.094892    0.000000

! Am Ende muss eine leere Zeile hinzugefuegt werden.


