! Anzahl der cpus:
%NprocShared=16

! Hier muss das Basisset definiert werden (%%%%)
#p pbepbe/STO-3G pop=regular scf=tight int=finegrid pop=Hirshfeld

orbitals calculation

0 1
! Hier werden die Atome und deren Positionen angegeben:
   C   -0.728910   -1.240989    0.000000
 C    1.396875   -0.000000    0.000000
 F    2.747516    0.000001    0.000000
 C    0.728910   -1.240989    0.000000
 C    0.710999   -3.691678    0.000000
 F    1.355858   -4.870119    0.000000
 C   -0.710999   -3.691678    0.000000
 F   -1.355859   -4.870118    0.000000
 C    1.410584   -2.501018    0.000000
 F    2.756722   -2.562510    0.000000
 C   -1.410584   -2.501018    0.000000
 F    2.756722    2.562509    0.000000
 C    0.728910    1.240989    0.000000
 C   -1.396875    0.000000    0.000000
 F   -2.747516   -0.000001    0.000000
 C   -0.728910    1.240989    0.000000
 C   -0.710999    3.691678    0.000000
 F   -1.355858    4.870119    0.000000
 C    0.710999    3.691678    0.000000
 F    1.355859    4.870118    0.000000
 C   -1.410584    2.501018    0.000000
 F   -2.756722    2.562510    0.000000
 C    1.410584    2.501018    0.000000
 F   -2.756722   -2.562509    0.000000

! Am Ende muss eine leere Zeile hinzugefuegt werden.
















